
   4.99271300046915
     1.0000000000000000    0.0000000000000000    0.0000000000000000
     0.8378864000000000    0.5458447000000000    0.0000000000000000
     0.8378864000000000    0.2488488000000000    0.4858196000000000
   Li   Co   O    
     1     1     2
Direct
  0.0000000000000000  0.0000000000000000  0.0000000000000000    F F F
 -0.4999999232486456  0.4999999083988542 -0.5000000000000000    F F F
  0.2395870335872469  0.2395869050742599 -0.7604129187048032    F F F
 -0.2395870335872469 -0.2395869050742599  0.7604129187048032    F F F
