 
   5.80939500258876
     1.0000000000000000    0.0000000000000000    0.0000000000000000
     0.5000000000000000    0.8660253999999999    0.0000000000000000
     0.5000000000000000    0.2886751000000000    0.8164966000000000
   Li   Co   O    
     4     4     8
Direct
 -0.3750000318568428  0.6250000330950645  0.1250000306186211    F F F
  0.6249999970106708 -0.3750000246399625 -0.3749999693813789    F F F
 -0.3750000029893292  0.1249999753600373  0.6250000306186211    F F F
  0.1249999970106708 -0.3750000246399625 -0.3749999693813789    F F F
  0.1249999681431572  0.1250000330950645  0.1250000306186211    F F F
 -0.3750000318568428  0.1250000330950645  0.1250000306186211    F F F
  0.1249999681431572 -0.3749999669049354  0.1250000306186211    F F F
  0.1249999970106708  0.1249999753600374 -0.3749999693813789    F F F
  0.3305277023425088 -0.1101759231689600 -0.1101758415160577    F F F
 -0.1101758887018934 -0.1101758696188707  0.3305276470226575    F F F
 -0.1101759110344521  0.3305276635849619 -0.1101758415160577    F F F
 -0.1101759376574911 -0.1101759231689600 -0.1101758415160577    F F F
 -0.6398240683211672  0.3601758738890347  0.3601759027532999    F F F
 -0.6398240949442063 -0.0805277128648873  0.3601759027532999    F F F
  0.3601758827232349 -0.6398241796610544 -0.0805275857854154    F F F
 -0.0805277083211673  0.3601758738890347  0.3601759027532999    F F F
